# Objective value = 1.1485122607655541e-02
err 1.1485122607655541e-02
res_1 2
res_2 1
res_3 0
fr_1 1631.43
fr_2 1521.78
fr_3 1.3604576047585228e+03
fr_4 1261.07
scr_1 2.5322239524147722e+02
scr_2 1.6881493016098480e+02
scr_3 8.4407465080492400e+01
scr_4 0
conn_1 0
